p cnf 96 380
c p weight 42 0 0
c p weight -42 1 0
c p weight 43 1.0 0
c p weight -43 1 0
38 -37 35 0
38 -37 36 0
-38 37 35 0
-38 37 36 0
38 37 -35 -36 0
-38 -37 -35 -36 0
39 35 -36 0
39 -35 36 0
-39 35 36 0
-39 -35 -36 0
40 41 -38 0
40 -38 39 0
-40 41 38 0
-40 38 39 0
40 -38 -35 0
-40 38 -35 0
40 -41 38 35 -39 0
-40 -41 -38 35 -39 0
41 -35 39 0
-41 35 39 0
-42 39 0
41 -42 -35 0
-41 -42 35 0
41 42 35 -39 0
-41 42 -35 -39 0
-43 39 0
41 -43 35 0
-41 -43 -35 0
41 43 -35 -39 0
-41 43 35 -39 0
44 -40 41 0
44 -40 39 0
-44 40 41 0
-44 40 39 0
44 40 -41 -39 0
-44 -40 -41 -39 0
45 41 -39 0
45 -41 39 0
-45 41 39 0
-45 -41 -39 0
46 -44 41 0
46 -44 34 0
-46 44 41 0
-46 44 34 0
46 -44 33 -45 0
46 -44 -33 45 0
-46 44 33 -45 0
-46 44 -33 45 0
46 44 -41 33 45 -34 0
46 44 -41 -33 -45 -34 0
-46 -44 -41 33 45 -34 0
-46 -44 -41 -33 -45 -34 0
48 41 -33 0
48 -41 33 0
-48 41 33 0
-48 -41 -33 0
47 45 -34 0
47 -45 34 0
-47 45 34 0
-47 -45 -34 0
49 -46 48 0
49 -46 32 0
-49 46 48 0
-49 46 32 0
49 -46 31 -34 0
49 -46 -31 34 0
-49 46 31 -34 0
-49 46 -31 34 0
49 46 -48 31 34 -32 0
49 46 -48 -31 -34 -32 0
-49 -46 -48 31 34 -32 0
-49 -46 -48 -31 -34 -32 0
51 48 -31 0
51 -48 31 0
-51 48 31 0
-51 -48 -31 0
50 34 -32 0
50 -34 32 0
-50 34 32 0
-50 -34 -32 0
52 -49 51 0
52 -49 30 0
-52 49 51 0
-52 49 30 0
52 -49 29 -32 0
52 -49 -29 32 0
-52 49 29 -32 0
-52 49 -29 32 0
52 49 -51 29 32 -30 0
52 49 -51 -29 -32 -30 0
-52 -49 -51 29 32 -30 0
-52 -49 -51 -29 -32 -30 0
54 51 -29 0
54 -51 29 0
-54 51 29 0
-54 -51 -29 0
53 32 -30 0
53 -32 30 0
-53 32 30 0
-53 -32 -30 0
55 -52 54 0
55 -52 28 0
-55 52 54 0
-55 52 28 0
55 -52 27 -30 0
55 -52 -27 30 0
-55 52 27 -30 0
-55 52 -27 30 0
55 52 -54 27 30 -28 0
55 52 -54 -27 -30 -28 0
-55 -52 -54 27 30 -28 0
-55 -52 -54 -27 -30 -28 0
57 54 -27 0
57 -54 27 0
-57 54 27 0
-57 -54 -27 0
56 30 -28 0
56 -30 28 0
-56 30 28 0
-56 -30 -28 0
58 -55 57 0
58 -55 26 0
-58 55 57 0
-58 55 26 0
58 -55 25 -28 0
58 -55 -25 28 0
-58 55 25 -28 0
-58 55 -25 28 0
58 55 -57 25 28 -26 0
58 55 -57 -25 -28 -26 0
-58 -55 -57 25 28 -26 0
-58 -55 -57 -25 -28 -26 0
60 57 -25 0
60 -57 25 0
-60 57 25 0
-60 -57 -25 0
59 28 -26 0
59 -28 26 0
-59 28 26 0
-59 -28 -26 0
61 -58 60 0
61 -58 24 0
-61 58 60 0
-61 58 24 0
61 -58 23 -26 0
61 -58 -23 26 0
-61 58 23 -26 0
-61 58 -23 26 0
61 58 -60 23 26 -24 0
61 58 -60 -23 -26 -24 0
-61 -58 -60 23 26 -24 0
-61 -58 -60 -23 -26 -24 0
63 60 -23 0
63 -60 23 0
-63 60 23 0
-63 -60 -23 0
62 26 -24 0
62 -26 24 0
-62 26 24 0
-62 -26 -24 0
64 -61 63 0
64 -61 22 0
-64 61 63 0
-64 61 22 0
64 -61 21 -24 0
64 -61 -21 24 0
-64 61 21 -24 0
-64 61 -21 24 0
64 61 -63 21 24 -22 0
64 61 -63 -21 -24 -22 0
-64 -61 -63 21 24 -22 0
-64 -61 -63 -21 -24 -22 0
66 63 -21 0
66 -63 21 0
-66 63 21 0
-66 -63 -21 0
65 24 -22 0
65 -24 22 0
-65 24 22 0
-65 -24 -22 0
67 -64 66 0
67 -64 20 0
-67 64 66 0
-67 64 20 0
67 -64 19 -22 0
67 -64 -19 22 0
-67 64 19 -22 0
-67 64 -19 22 0
67 64 -66 19 22 -20 0
67 64 -66 -19 -22 -20 0
-67 -64 -66 19 22 -20 0
-67 -64 -66 -19 -22 -20 0
69 66 -19 0
69 -66 19 0
-69 66 19 0
-69 -66 -19 0
68 22 -20 0
68 -22 20 0
-68 22 20 0
-68 -22 -20 0
70 -67 69 0
70 -67 18 0
-70 67 69 0
-70 67 18 0
70 -67 17 -20 0
70 -67 -17 20 0
-70 67 17 -20 0
-70 67 -17 20 0
70 67 -69 17 20 -18 0
70 67 -69 -17 -20 -18 0
-70 -67 -69 17 20 -18 0
-70 -67 -69 -17 -20 -18 0
72 69 -17 0
72 -69 17 0
-72 69 17 0
-72 -69 -17 0
71 20 -18 0
71 -20 18 0
-71 20 18 0
-71 -20 -18 0
73 -70 72 0
73 -70 16 0
-73 70 72 0
-73 70 16 0
73 -70 15 -18 0
73 -70 -15 18 0
-73 70 15 -18 0
-73 70 -15 18 0
73 70 -72 15 18 -16 0
73 70 -72 -15 -18 -16 0
-73 -70 -72 15 18 -16 0
-73 -70 -72 -15 -18 -16 0
75 72 -15 0
75 -72 15 0
-75 72 15 0
-75 -72 -15 0
74 18 -16 0
74 -18 16 0
-74 18 16 0
-74 -18 -16 0
76 -73 75 0
76 -73 14 0
-76 73 75 0
-76 73 14 0
76 -73 13 -16 0
76 -73 -13 16 0
-76 73 13 -16 0
-76 73 -13 16 0
76 73 -75 13 16 -14 0
76 73 -75 -13 -16 -14 0
-76 -73 -75 13 16 -14 0
-76 -73 -75 -13 -16 -14 0
78 75 -13 0
78 -75 13 0
-78 75 13 0
-78 -75 -13 0
77 16 -14 0
77 -16 14 0
-77 16 14 0
-77 -16 -14 0
79 -76 78 0
79 -76 12 0
-79 76 78 0
-79 76 12 0
79 -76 11 -14 0
79 -76 -11 14 0
-79 76 11 -14 0
-79 76 -11 14 0
79 76 -78 11 14 -12 0
79 76 -78 -11 -14 -12 0
-79 -76 -78 11 14 -12 0
-79 -76 -78 -11 -14 -12 0
81 78 -11 0
81 -78 11 0
-81 78 11 0
-81 -78 -11 0
80 14 -12 0
80 -14 12 0
-80 14 12 0
-80 -14 -12 0
82 -79 81 0
82 -79 10 0
-82 79 81 0
-82 79 10 0
82 -79 9 -12 0
82 -79 -9 12 0
-82 79 9 -12 0
-82 79 -9 12 0
82 79 -81 9 12 -10 0
82 79 -81 -9 -12 -10 0
-82 -79 -81 9 12 -10 0
-82 -79 -81 -9 -12 -10 0
84 81 -9 0
84 -81 9 0
-84 81 9 0
-84 -81 -9 0
83 12 -10 0
83 -12 10 0
-83 12 10 0
-83 -12 -10 0
85 -82 84 0
85 -82 8 0
-85 82 84 0
-85 82 8 0
85 -82 7 -10 0
85 -82 -7 10 0
-85 82 7 -10 0
-85 82 -7 10 0
85 82 -84 7 10 -8 0
85 82 -84 -7 -10 -8 0
-85 -82 -84 7 10 -8 0
-85 -82 -84 -7 -10 -8 0
87 84 -7 0
87 -84 7 0
-87 84 7 0
-87 -84 -7 0
86 10 -8 0
86 -10 8 0
-86 10 8 0
-86 -10 -8 0
88 -85 87 0
88 -85 6 0
-88 85 87 0
-88 85 6 0
88 -85 5 -8 0
88 -85 -5 8 0
-88 85 5 -8 0
-88 85 -5 8 0
88 85 -87 5 8 -6 0
88 85 -87 -5 -8 -6 0
-88 -85 -87 5 8 -6 0
-88 -85 -87 -5 -8 -6 0
90 87 -5 0
90 -87 5 0
-90 87 5 0
-90 -87 -5 0
89 8 -6 0
89 -8 6 0
-89 8 6 0
-89 -8 -6 0
91 -88 90 0
91 -88 4 0
-91 88 90 0
-91 88 4 0
91 -88 3 -6 0
91 -88 -3 6 0
-91 88 3 -6 0
-91 88 -3 6 0
91 88 -90 3 6 -4 0
91 88 -90 -3 -6 -4 0
-91 -88 -90 3 6 -4 0
-91 -88 -90 -3 -6 -4 0
93 90 -3 0
93 -90 3 0
-93 90 3 0
-93 -90 -3 0
92 6 -4 0
92 -6 4 0
-92 6 4 0
-92 -6 -4 0
94 -91 93 0
94 -91 2 0
-94 91 93 0
-94 91 2 0
94 -91 1 -4 0
94 -91 -1 4 0
-94 91 1 -4 0
-94 91 -1 4 0
94 91 -93 1 4 -2 0
94 91 -93 -1 -4 -2 0
-94 -91 -93 1 4 -2 0
-94 -91 -93 -1 -4 -2 0
96 93 -1 0
96 -93 1 0
-96 93 1 0
-96 -93 -1 0
95 4 -2 0
95 -4 2 0
-95 4 2 0
-95 -4 -2 0
